1 100 598
3 1 2 2 2 2 2 2 2 3
4
4 3 5 1
0 40.0 50.0 0.0 0.0 0 1236
2 45.0 68.0 90.0 10.0 0 1127 73 0 0 0 0 0 0 0 0 1 0
3 45.0 70.0 90.0 30.0 0 1125 11 0 1 0 0 0 1 0 0 0 0
4 42.0 66.0 90.0 10.0 0 1129 76 0 0 0 0 0 1 1 1 0 0
5 42.0 68.0 90.0 10.0 727 782 13 0 1 0 0 0 1 0 0 0 0
6 42.0 65.0 90.0 10.0 0 1130 96 0 0 1 0 1 0 0 0 0 1
7 40.0 69.0 90.0 20.0 0 1127 29 0 0 0 1 1 1 0 0 0 1
8 40.0 66.0 90.0 20.0 0 1130 3 1 0 1 1 0 0 0 1 0 0
9 38.0 68.0 90.0 20.0 255 324 28 0 1 0 1 0 0 0 1 0 0
10 38.0 70.0 90.0 10.0 534 605 78 0 1 0 0 0 0 0 0 0 0
11 35.0 66.0 90.0 10.0 0 1129 63 0 0 1 1 0 0 0 0 0 0
12 35.0 69.0 90.0 10.0 448 505 19 0 0 0 0 0 0 1 0 0 0
13 25.0 85.0 90.0 20.0 0 1107 89 0 0 0 0 0 0 1 0 0 0
14 22.0 75.0 90.0 30.0 30 92 65 0 0 0 1 0 0 0 1 0 0
15 22.0 85.0 90.0 10.0 0 1106 20 0 0 0 0 0 1 0 0 1 0
16 20.0 80.0 90.0 40.0 384 429 41 0 0 0 0 0 0 0 0 0 1
17 20.0 85.0 90.0 40.0 0 1105 71 0 0 0 0 0 1 0 0 0 0
18 18.0 75.0 90.0 20.0 0 1112 38 0 0 0 0 1 0 0 1 0 0
19 15.0 75.0 90.0 20.0 0 1110 62 0 0 1 0 0 0 0 0 0 0
20 15.0 80.0 90.0 10.0 0 1106 32 0 0 0 1 0 0 0 0 0 0
21 30.0 50.0 90.0 10.0 0 1136 65 0 0 0 0 0 0 0 0 1 0
22 30.0 52.0 90.0 20.0 0 1135 72 0 0 0 1 0 1 0 0 1 1
23 28.0 52.0 90.0 20.0 0 1133 98 0 0 0 0 1 0 0 0 0 1
24 28.0 55.0 90.0 10.0 732 777 88 1 1 1 0 1 0 0 0 0 0
25 25.0 50.0 90.0 10.0 0 1131 66 0 0 0 0 0 0 1 0 0 0
26 25.0 52.0 90.0 40.0 169 224 81 0 0 0 0 0 0 1 0 1 0
27 25.0 55.0 90.0 10.0 0 1130 68 0 0 0 0 0 1 0 1 0 0
28 23.0 52.0 90.0 10.0 0 1128 94 0 0 1 0 0 0 0 0 0 1
29 23.0 55.0 90.0 20.0 0 1128 55 1 1 0 0 1 0 0 0 0 1
30 20.0 50.0 90.0 10.0 0 1126 47 1 0 0 0 1 0 1 0 0 0
31 20.0 55.0 90.0 10.0 0 1125 33 0 0 0 0 0 1 0 0 0 0
32 10.0 35.0 90.0 20.0 0 1112 39 0 0 0 0 0 1 0 0 0 0
33 10.0 40.0 90.0 30.0 0 1114 22 1 0 0 0 1 0 0 0 0 0
34 8.0 40.0 90.0 40.0 0 1112 78 0 0 1 0 0 0 0 0 0 0
35 8.0 45.0 90.0 20.0 0 1113 46 0 0 0 1 1 0 1 0 0 0
36 5.0 35.0 90.0 10.0 0 1107 58 0 0 0 0 1 0 0 0 0 0
37 5.0 45.0 90.0 10.0 0 1110 72 0 0 0 0 0 1 1 0 0 0
38 2.0 40.0 90.0 20.0 0 1106 17 0 0 0 1 1 0 0 1 0 0
39 0.0 40.0 90.0 30.0 479 522 54 0 0 0 0 1 0 0 0 1 1
40 0.0 45.0 90.0 20.0 0 1105 77 0 0 0 1 0 1 1 0 0 0
41 35.0 30.0 90.0 10.0 0 1125 85 0 1 0 0 0 0 0 0 0 1
42 35.0 32.0 90.0 10.0 0 1127 51 0 0 1 0 1 0 0 0 0 0
43 33.0 32.0 90.0 20.0 0 1126 67 0 0 0 1 1 0 0 0 0 1
44 33.0 35.0 90.0 10.0 0 1129 8 0 1 0 0 0 0 0 0 0 1
45 32.0 30.0 90.0 10.0 359 412 23 0 0 1 0 0 0 0 1 1 0
46 30.0 30.0 90.0 10.0 0 1123 68 0 0 1 0 0 0 0 0 0 0
47 30.0 32.0 90.0 30.0 0 1125 62 0 1 0 1 0 0 1 1 0 0
48 30.0 35.0 90.0 10.0 0 1127 92 1 0 0 0 1 0 0 0 0 0
49 28.0 30.0 90.0 10.0 0 1122 9 0 0 0 0 0 1 0 1 0 0
50 28.0 35.0 90.0 10.0 0 1126 81 0 0 0 0 0 0 1 0 0 0
51 26.0 32.0 90.0 10.0 0 1123 81 0 0 1 0 0 1 0 1 0 0
52 25.0 30.0 90.0 10.0 0 1121 51 1 0 0 0 0 0 1 0 0 0
53 25.0 35.0 90.0 10.0 0 1124 91 0 0 0 0 0 1 0 1 0 0
54 44.0 5.0 90.0 20.0 286 347 59 0 0 1 0 0 1 0 1 0 0
55 42.0 10.0 90.0 40.0 0 1105 51 0 0 0 0 0 1 0 0 0 0
56 42.0 15.0 90.0 10.0 95 158 53 0 0 1 0 1 0 0 1 0 0
57 40.0 5.0 90.0 30.0 0 1101 72 1 0 0 0 1 0 0 0 1 1
58 40.0 15.0 90.0 40.0 0 1111 93 0 0 0 0 0 1 0 0 0 0
59 38.0 5.0 90.0 30.0 471 534 51 0 0 1 0 0 1 0 1 0 1
60 38.0 15.0 90.0 10.0 0 1110 69 1 0 0 1 0 0 0 0 1 0
61 35.0 5.0 90.0 20.0 0 1100 92 1 0 0 0 0 0 0 0 0 0
62 50.0 30.0 90.0 10.0 0 1123 24 0 0 0 1 1 0 0 0 0 0
63 50.0 35.0 90.0 20.0 262 317 89 0 1 1 1 0 0 1 0 1 0
64 50.0 40.0 90.0 50.0 0 1131 14 0 0 0 1 0 0 0 0 0 1
65 48.0 30.0 90.0 10.0 0 1124 48 0 0 1 0 1 1 0 0 1 0
66 48.0 40.0 90.0 10.0 0 1133 88 0 0 0 0 0 1 0 0 0 0
67 47.0 35.0 90.0 10.0 0 1129 3 1 0 0 0 1 0 1 1 0 0
68 47.0 40.0 90.0 10.0 12 77 84 0 0 0 0 0 1 0 0 0 0
69 45.0 30.0 90.0 10.0 0 1125 70 0 1 0 1 0 1 0 1 0 0
70 45.0 35.0 90.0 10.0 916 969 91 1 0 1 1 1 0 1 0 0 1
71 95.0 30.0 90.0 30.0 0 1087 39 0 0 0 0 0 0 0 1 0 0
72 95.0 35.0 90.0 20.0 0 1088 51 0 0 0 0 1 0 0 0 0 0
73 53.0 30.0 90.0 10.0 0 1122 46 0 0 1 0 0 0 1 0 0 0
74 92.0 30.0 90.0 10.0 0 1090 78 0 1 0 0 0 1 1 0 0 0
75 53.0 35.0 90.0 50.0 353 412 3 1 0 0 0 0 0 0 0 0 0
76 45.0 65.0 90.0 20.0 0 1130 65 0 0 1 0 0 0 0 0 1 0
77 90.0 35.0 90.0 10.0 203 260 43 0 0 0 0 0 1 0 0 0 0
78 88.0 30.0 90.0 10.0 574 643 8 0 0 0 0 1 0 1 0 0 0
79 88.0 35.0 90.0 20.0 0 1095 89 0 0 0 0 0 1 0 0 0 0
80 87.0 30.0 90.0 10.0 668 731 93 1 0 0 1 0 0 1 0 0 0
81 85.0 25.0 90.0 10.0 0 1094 7 1 0 0 0 0 0 0 0 0 0
82 85.0 35.0 90.0 30.0 0 1098 10 0 1 0 1 0 0 0 0 0 0
83 75.0 55.0 90.0 20.0 0 1110 65 1 0 1 0 0 0 0 0 0 0
84 72.0 55.0 90.0 10.0 0 1113 32 1 0 0 0 0 0 0 0 0 0
85 70.0 58.0 90.0 20.0 458 523 23 0 1 0 0 0 0 1 0 0 0
86 68.0 60.0 90.0 30.0 0 1116 33 0 0 0 0 1 0 0 0 0 0
87 66.0 55.0 90.0 10.0 0 1119 62 0 0 0 0 0 1 0 0 0 0
88 65.0 55.0 90.0 20.0 85 144 49 0 0 0 1 0 0 1 0 1 1
89 65.0 60.0 90.0 30.0 0 1119 27 0 1 0 0 0 0 0 0 1 0
90 63.0 58.0 90.0 10.0 0 1121 55 0 0 0 0 0 0 1 0 0 1
91 60.0 55.0 90.0 10.0 0 1125 72 0 0 0 0 1 0 0 0 0 0
92 60.0 60.0 90.0 10.0 0 1123 6 0 0 0 1 0 0 1 0 0 1
93 67.0 85.0 90.0 20.0 368 441 27 1 0 0 1 0 0 0 0 0 0
94 65.0 85.0 90.0 40.0 0 1102 33 0 1 0 1 0 0 0 0 0 0
95 65.0 82.0 90.0 10.0 0 1105 21 0 0 0 0 1 0 1 0 0 0
96 62.0 80.0 90.0 30.0 0 1108 97 0 0 1 1 0 1 1 0 0 0
97 60.0 80.0 90.0 10.0 0 1109 19 0 0 0 0 0 0 1 0 1 1
98 60.0 85.0 90.0 30.0 0 1105 3 0 0 0 0 0 0 1 0 0 0
99 58.0 75.0 90.0 20.0 0 1115 5 0 0 0 0 0 0 1 1 0 0
100 55.0 80.0 90.0 10.0 743 820 81 0 0 0 1 0 0 0 0 0 0
101 55.0 85.0 90.0 20.0 647 726 41 0 0 1 0 0 0 0 1 0 1